3	10	7	14	6	8	12	29	5	23	9	11	25	27	38	22	1	20	37	52	40	24	35	44	15	21	4	30	53	16	42	31	55	26	50	19	67	59	41	39	13	70	56	68	34	57	65	74	85	46	83	49	80	61	45	28	54	2	72	64	87	69	100	71	60	17	95	36	18	76	75	102	33	98	84	79	115	43	51	90	58	117	89	86	66	132	73	81	32	94	130	113	104	82	110	99	97	128	48	88	147	91	105	96	112	119	145	109	143	103	158	114	125	124	47	101	162	160	106	118	134	173	116	188	63	127	140	62	121	177	111	139	175	149	78	203	133	218	131	93	154	108	192	77	92	136	146	126	107	155	129	141	148	123	169	207	170	142	120	184	135	150	163	161	156	122	165	144	151	138	157	190	137	171	178	176	159	180	222	191	205	166	153	152	172	174	168	206	187	185	167	193	164	183	195	182	199	200	181	179	189	198	220	210	202	221	208	196	213	186	197	201	215	194	223	225	204	209	214	216	219	217	212	224	211
